
Gurobi 12.0.2 (win64) logging started Sun Jun  8 11:32:27 2025

Set parameter LogFile to value "C:\Ioana\_uni\honours\slp\algorithm\Main_files\results\others\prox_tubules_new_model\Task_003_Sample003_irr_gurobi.log"
Gurobi Optimizer version 12.0.2 build v12.0.2rc0 (win64 - Windows 11.0 (26100.2))

CPU model: Intel(R) Core(TM) Ultra 5 125H, instruction set [SSE2|AVX|AVX2]
Thread count: 14 physical cores, 18 logical processors, using up to 18 threads

Non-default parameters:
TimeLimit  2200

Optimize a model with 47226 rows, 34499 columns and 146686 nonzeros
Model fingerprint: 0x4ed85845
Variable types: 17254 continuous, 17245 integer (17245 binary)
Coefficient statistics:
  Matrix range     [1e-04, 8e+04]
  Objective range  [2e-04, 9e-01]
  Bounds range     [1e+00, 1e+03]
  RHS range        [1e+00, 1e+00]
Presolve removed 30782 rows and 21546 columns
Presolve time: 0.32s
Presolved: 16444 rows, 12953 columns, 54667 nonzeros
Variable types: 6410 continuous, 6543 integer (6543 binary)

Root relaxation: objective 2.481895e-04, 545 iterations, 0.04 seconds (0.03 work units)

    Nodes    |    Current Node    |     Objective Bounds      |     Work
 Expl Unexpl |  Obj  Depth IntInf | Incumbent    BestBd   Gap | It/Node Time

     0     0    0.00025    0   12          -    0.00025      -     -    0s
H    0     0                       0.2284741    0.00025   100%     -    0s
H    0     0                       0.2229185    0.00025   100%     -    0s
     0     0    0.13439    0   11    0.22292    0.13439  39.7%     -    0s
     0     0    0.21737    0    2    0.22292    0.21737  2.49%     -    0s

Cutting planes:
  Implied bound: 2
  Clique: 1
  Flow cover: 1
  Flow path: 1

Explored 1 nodes (1055 simplex iterations) in 0.63 seconds (0.65 work units)
Thread count was 18 (of 18 available processors)

Solution count 2: 0.222919 0.228474 

Optimal solution found (tolerance 1.00e-04)
Best objective 2.229185240050e-01, best bound 2.229185240050e-01, gap 0.0000%
